TIP.Original.Linear/isaplanner_prop_79.smt2
(set-logic HORN)
(declare-datatypes ((Nat_93 0)) (((Z_263 ) (S_93 (projS_90 Nat_93)))))
(declare-fun diseqNat_93 (Nat_93 Nat_93) Bool)
(declare-fun projS_91 (Nat_93 Nat_93) Bool)
(declare-fun isZ_93 (Nat_93) Bool)
(declare-fun isS_93 (Nat_93) Bool)
(assert (forall ((x_2566 Nat_93))
	(projS_91 x_2566 (S_93 x_2566))))
(assert (isZ_93 Z_263))
(assert (forall ((x_2568 Nat_93))
	(isS_93 (S_93 x_2568))))
(assert (forall ((x_2569 Nat_93))
	(diseqNat_93 Z_263 (S_93 x_2569))))
(assert (forall ((x_2570 Nat_93))
	(diseqNat_93 (S_93 x_2570) Z_263)))
(assert (forall ((x_2571 Nat_93) (x_2572 Nat_93))
	(=> (diseqNat_93 x_2571 x_2572)
	    (diseqNat_93 (S_93 x_2571) (S_93 x_2572)))))
(declare-fun x_2553 (Nat_93 Nat_93 Nat_93) Bool)
(assert (forall ((x_2556 Nat_93) (x_2555 Nat_93) (z_264 Nat_93))
	(=> (x_2553 x_2556 z_264 x_2555)
	    (x_2553 x_2556 (S_93 z_264) (S_93 x_2555)))))
(assert (forall ((z_264 Nat_93))
	(x_2553 (S_93 z_264) (S_93 z_264) Z_263)))
(assert (forall ((y_207 Nat_93))
	(x_2553 Z_263 Z_263 y_207)))
(assert (forall ((x_2560 Nat_93) (x_2561 Nat_93) (x_2562 Nat_93) (x_2563 Nat_93) (m_8 Nat_93) (n_20 Nat_93) (k_2 Nat_93))
	(=>	(and true
			(diseqNat_93 x_2561 x_2563)
			(x_2553 x_2560 (S_93 m_8) n_20)
			(x_2553 x_2561 x_2560 (S_93 k_2))
			(x_2553 x_2562 m_8 n_20)
			(x_2553 x_2563 x_2562 k_2))
		false)))
(check-sat)
